p cnf 595 2070
26 82 0
-26 -82 0
126 -106 0
-126 106 0
-107 -126 0
-106 -27 -125 0
-106 27 0
-107 -27 -125 0
-107 27 0
-108 -27 -125 0
-108 27 0
129 -26 0
-129 26 0
320 -129 0
-320 129 0
125 -129 0
-125 129 0
130 -29 -36 0
-130 29 0
-130 36 0
321 -130 0
-321 130 0
322 -106 -130 109 0
-322 106 0
-322 130 0
-322 -109 0
323 -133 -130 109 106 0
-323 133 0
-323 130 0
-323 -109 0
-323 -106 0
324 -133 -109 -106 -130 0
-324 133 0
-324 109 0
-324 106 0
-324 130 0
325 -107 -130 110 0
-325 107 0
-325 130 0
-325 -110 0
326 -134 -130 110 107 0
-326 134 0
-326 130 0
-326 -110 0
-326 -107 0
327 -134 -110 -107 -130 0
-327 134 0
-327 110 0
-327 107 0
-327 130 0
134 -108 -130 111 0
-134 108 0
-134 130 0
-134 -111 0
131 -130 -132 0
-131 130 0
-131 132 0
328 -131 125 0
-328 131 0
-328 -125 0
329 -109 -106 -130 0
-329 109 0
-329 106 0
-329 130 0
330 -130 109 106 0
-330 130 0
-330 -109 0
-330 -106 0
331 -135 -110 -107 -130 0
-331 135 0
-331 110 0
-331 107 0
-331 130 0
332 -135 -130 110 107 0
-332 135 0
-332 130 0
-332 -110 0
-332 -107 0
137 -106 -130 109 0
-137 106 0
-137 130 0
-137 -109 0
333 -135 -107 -130 110 0
-333 135 0
-333 107 0
-333 130 0
-333 -110 0
334 -137 -110 -130 107 0
-334 137 0
-334 110 0
-334 130 0
-334 -107 0
335 -136 -108 -130 111 0
-335 136 0
-335 108 0
-335 130 0
-335 -111 0
336 -138 -111 -130 108 0
-336 138 0
-336 111 0
-336 130 0
-336 -108 0
-131 139 0
337 -130 -139 0
-337 130 0
-337 139 0
140 -31 -40 0
-140 31 0
-140 40 0
338 -140 0
-338 140 0
339 -106 -140 112 0
-339 106 0
-339 140 0
-339 -112 0
340 -143 -140 112 106 0
-340 143 0
-340 140 0
-340 -112 0
-340 -106 0
341 -143 -112 -106 -140 0
-341 143 0
-341 112 0
-341 106 0
-341 140 0
342 -107 -140 113 0
-342 107 0
-342 140 0
-342 -113 0
343 -144 -140 113 107 0
-343 144 0
-343 140 0
-343 -113 0
-343 -107 0
344 -144 -113 -107 -140 0
-344 144 0
-344 113 0
-344 107 0
-344 140 0
144 -108 -140 114 0
-144 108 0
-144 140 0
-144 -114 0
141 -140 -142 0
-141 140 0
-141 142 0
345 -141 125 0
-345 141 0
-345 -125 0
346 -112 -106 -140 0
-346 112 0
-346 106 0
-346 140 0
347 -140 112 106 0
-347 140 0
-347 -112 0
-347 -106 0
348 -145 -113 -107 -140 0
-348 145 0
-348 113 0
-348 107 0
-348 140 0
349 -145 -140 113 107 0
-349 145 0
-349 140 0
-349 -113 0
-349 -107 0
147 -106 -140 112 0
-147 106 0
-147 140 0
-147 -112 0
350 -145 -107 -140 113 0
-350 145 0
-350 107 0
-350 140 0
-350 -113 0
351 -147 -113 -140 107 0
-351 147 0
-351 113 0
-351 140 0
-351 -107 0
352 -146 -108 -140 114 0
-352 146 0
-352 108 0
-352 140 0
-352 -114 0
353 -148 -114 -140 108 0
-353 148 0
-353 114 0
-353 140 0
-353 -108 0
-141 149 0
354 -140 -149 0
-354 140 0
-354 149 0
150 -48 -49 0
-150 48 0
-150 49 0
355 -150 0
-355 150 0
356 -106 -150 121 0
-356 106 0
-356 150 0
-356 -121 0
357 -153 -150 121 106 0
-357 153 0
-357 150 0
-357 -121 0
-357 -106 0
358 -153 -121 -106 -150 0
-358 153 0
-358 121 0
-358 106 0
-358 150 0
359 -107 -150 122 0
-359 107 0
-359 150 0
-359 -122 0
360 -154 -150 122 107 0
-360 154 0
-360 150 0
-360 -122 0
-360 -107 0
361 -154 -122 -107 -150 0
-361 154 0
-361 122 0
-361 107 0
-361 150 0
154 -108 -150 123 0
-154 108 0
-154 150 0
-154 -123 0
151 -150 -152 0
-151 150 0
-151 152 0
362 -151 125 0
-362 151 0
-362 -125 0
363 -121 -106 -150 0
-363 121 0
-363 106 0
-363 150 0
364 -150 121 106 0
-364 150 0
-364 -121 0
-364 -106 0
365 -155 -122 -107 -150 0
-365 155 0
-365 122 0
-365 107 0
-365 150 0
366 -155 -150 122 107 0
-366 155 0
-366 150 0
-366 -122 0
-366 -107 0
157 -106 -150 121 0
-157 106 0
-157 150 0
-157 -121 0
367 -155 -107 -150 122 0
-367 155 0
-367 107 0
-367 150 0
-367 -122 0
368 -157 -122 -150 107 0
-368 157 0
-368 122 0
-368 150 0
-368 -107 0
369 -156 -108 -150 123 0
-369 156 0
-369 108 0
-369 150 0
-369 -123 0
370 -158 -123 -150 108 0
-370 158 0
-370 123 0
-370 150 0
-370 -108 0
-151 159 0
371 -150 -159 0
-371 150 0
-371 159 0
160 -34 -53 0
-160 34 0
-160 53 0
372 -160 0
-372 160 0
373 -106 -160 115 0
-373 106 0
-373 160 0
-373 -115 0
374 -163 -160 115 106 0
-374 163 0
-374 160 0
-374 -115 0
-374 -106 0
375 -163 -115 -106 -160 0
-375 163 0
-375 115 0
-375 106 0
-375 160 0
376 -107 -160 116 0
-376 107 0
-376 160 0
-376 -116 0
377 -164 -160 116 107 0
-377 164 0
-377 160 0
-377 -116 0
-377 -107 0
378 -164 -116 -107 -160 0
-378 164 0
-378 116 0
-378 107 0
-378 160 0
164 -108 -160 117 0
-164 108 0
-164 160 0
-164 -117 0
161 -160 -162 0
-161 160 0
-161 162 0
379 -161 125 0
-379 161 0
-379 -125 0
380 -115 -106 -160 0
-380 115 0
-380 106 0
-380 160 0
381 -160 115 106 0
-381 160 0
-381 -115 0
-381 -106 0
382 -165 -116 -107 -160 0
-382 165 0
-382 116 0
-382 107 0
-382 160 0
383 -165 -160 116 107 0
-383 165 0
-383 160 0
-383 -116 0
-383 -107 0
167 -106 -160 115 0
-167 106 0
-167 160 0
-167 -115 0
384 -165 -107 -160 116 0
-384 165 0
-384 107 0
-384 160 0
-384 -116 0
385 -167 -116 -160 107 0
-385 167 0
-385 116 0
-385 160 0
-385 -107 0
386 -166 -108 -160 117 0
-386 166 0
-386 108 0
-386 160 0
-386 -117 0
387 -168 -117 -160 108 0
-387 168 0
-387 117 0
-387 160 0
-387 -108 0
-161 169 0
388 -160 -169 0
-388 160 0
-388 169 0
-127 128 0
-27 127 125 0
28 83 0
-28 -83 0
172 -109 0
-172 109 0
-110 -172 0
-109 -29 -171 0
-109 29 0
-110 -29 -171 0
-110 29 0
-111 -29 -171 0
-111 29 0
175 -28 0
-175 28 0
389 -175 0
-389 175 0
171 -175 0
-171 175 0
176 -34 -35 0
-176 34 0
-176 35 0
390 -176 0
-390 176 0
391 -109 -176 115 0
-391 109 0
-391 176 0
-391 -115 0
392 -179 -176 115 109 0
-392 179 0
-392 176 0
-392 -115 0
-392 -109 0
393 -179 -115 -109 -176 0
-393 179 0
-393 115 0
-393 109 0
-393 176 0
394 -110 -176 116 0
-394 110 0
-394 176 0
-394 -116 0
395 -180 -176 116 110 0
-395 180 0
-395 176 0
-395 -116 0
-395 -110 0
396 -180 -116 -110 -176 0
-396 180 0
-396 116 0
-396 110 0
-396 176 0
180 -111 -176 117 0
-180 111 0
-180 176 0
-180 -117 0
177 -176 -178 0
-177 176 0
-177 178 0
397 -177 171 0
-397 177 0
-397 -171 0
398 -115 -109 -176 0
-398 115 0
-398 109 0
-398 176 0
399 -176 115 109 0
-399 176 0
-399 -115 0
-399 -109 0
400 -181 -116 -110 -176 0
-400 181 0
-400 116 0
-400 110 0
-400 176 0
401 -181 -176 116 110 0
-401 181 0
-401 176 0
-401 -116 0
-401 -110 0
183 -109 -176 115 0
-183 109 0
-183 176 0
-183 -115 0
402 -181 -110 -176 116 0
-402 181 0
-402 110 0
-402 176 0
-402 -116 0
403 -183 -116 -176 110 0
-403 183 0
-403 116 0
-403 176 0
-403 -110 0
404 -182 -111 -176 117 0
-404 182 0
-404 111 0
-404 176 0
-404 -117 0
405 -184 -117 -176 111 0
-405 184 0
-405 117 0
-405 176 0
-405 -111 0
-177 185 0
406 -176 -185 0
-406 176 0
-406 185 0
186 -31 -38 0
-186 31 0
-186 38 0
407 -186 0
-407 186 0
408 -109 -186 112 0
-408 109 0
-408 186 0
-408 -112 0
409 -189 -186 112 109 0
-409 189 0
-409 186 0
-409 -112 0
-409 -109 0
410 -189 -112 -109 -186 0
-410 189 0
-410 112 0
-410 109 0
-410 186 0
411 -110 -186 113 0
-411 110 0
-411 186 0
-411 -113 0
412 -190 -186 113 110 0
-412 190 0
-412 186 0
-412 -113 0
-412 -110 0
413 -190 -113 -110 -186 0
-413 190 0
-413 113 0
-413 110 0
-413 186 0
190 -111 -186 114 0
-190 111 0
-190 186 0
-190 -114 0
187 -186 -188 0
-187 186 0
-187 188 0
414 -187 171 0
-414 187 0
-414 -171 0
415 -112 -109 -186 0
-415 112 0
-415 109 0
-415 186 0
416 -186 112 109 0
-416 186 0
-416 -112 0
-416 -109 0
417 -191 -113 -110 -186 0
-417 191 0
-417 113 0
-417 110 0
-417 186 0
418 -191 -186 113 110 0
-418 191 0
-418 186 0
-418 -113 0
-418 -110 0
193 -109 -186 112 0
-193 109 0
-193 186 0
-193 -112 0
419 -191 -110 -186 113 0
-419 191 0
-419 110 0
-419 186 0
-419 -113 0
420 -193 -113 -186 110 0
-420 193 0
-420 113 0
-420 186 0
-420 -110 0
421 -192 -111 -186 114 0
-421 192 0
-421 111 0
-421 186 0
-421 -114 0
422 -194 -114 -186 111 0
-422 194 0
-422 114 0
-422 186 0
-422 -111 0
-187 195 0
423 -186 -195 0
-423 186 0
-423 195 0
196 -27 -41 0
-196 27 0
-196 41 0
424 -196 0
-424 196 0
425 -109 -196 106 0
-425 109 0
-425 196 0
-425 -106 0
426 -199 -196 106 109 0
-426 199 0
-426 196 0
-426 -106 0
-426 -109 0
427 -199 -106 -109 -196 0
-427 199 0
-427 106 0
-427 109 0
-427 196 0
428 -110 -196 107 0
-428 110 0
-428 196 0
-428 -107 0
429 -200 -196 107 110 0
-429 200 0
-429 196 0
-429 -107 0
-429 -110 0
430 -200 -107 -110 -196 0
-430 200 0
-430 107 0
-430 110 0
-430 196 0
200 -111 -196 108 0
-200 111 0
-200 196 0
-200 -108 0
197 -196 -198 0
-197 196 0
-197 198 0
431 -197 171 0
-431 197 0
-431 -171 0
432 -106 -109 -196 0
-432 106 0
-432 109 0
-432 196 0
433 -196 106 109 0
-433 196 0
-433 -106 0
-433 -109 0
434 -201 -107 -110 -196 0
-434 201 0
-434 107 0
-434 110 0
-434 196 0
435 -201 -196 107 110 0
-435 201 0
-435 196 0
-435 -107 0
-435 -110 0
203 -109 -196 106 0
-203 109 0
-203 196 0
-203 -106 0
436 -201 -110 -196 107 0
-436 201 0
-436 110 0
-436 196 0
-436 -107 0
437 -203 -107 -196 110 0
-437 203 0
-437 107 0
-437 196 0
-437 -110 0
438 -202 -111 -196 108 0
-438 202 0
-438 111 0
-438 196 0
-438 -108 0
439 -204 -108 -196 111 0
-439 204 0
-439 108 0
-439 196 0
-439 -111 0
-197 205 0
440 -196 -205 0
-440 196 0
-440 205 0
206 -44 -45 0
-206 44 0
-206 45 0
441 -206 0
-441 206 0
442 -109 -206 118 0
-442 109 0
-442 206 0
-442 -118 0
443 -209 -206 118 109 0
-443 209 0
-443 206 0
-443 -118 0
-443 -109 0
444 -209 -118 -109 -206 0
-444 209 0
-444 118 0
-444 109 0
-444 206 0
445 -110 -206 119 0
-445 110 0
-445 206 0
-445 -119 0
446 -210 -206 119 110 0
-446 210 0
-446 206 0
-446 -119 0
-446 -110 0
447 -210 -119 -110 -206 0
-447 210 0
-447 119 0
-447 110 0
-447 206 0
210 -111 -206 120 0
-210 111 0
-210 206 0
-210 -120 0
207 -206 -208 0
-207 206 0
-207 208 0
448 -207 171 0
-448 207 0
-448 -171 0
449 -118 -109 -206 0
-449 118 0
-449 109 0
-449 206 0
450 -206 118 109 0
-450 206 0
-450 -118 0
-450 -109 0
451 -211 -119 -110 -206 0
-451 211 0
-451 119 0
-451 110 0
-451 206 0
452 -211 -206 119 110 0
-452 211 0
-452 206 0
-452 -119 0
-452 -110 0
213 -109 -206 118 0
-213 109 0
-213 206 0
-213 -118 0
453 -211 -110 -206 119 0
-453 211 0
-453 110 0
-453 206 0
-453 -119 0
454 -213 -119 -206 110 0
-454 213 0
-454 119 0
-454 206 0
-454 -110 0
455 -212 -111 -206 120 0
-455 212 0
-455 111 0
-455 206 0
-455 -120 0
456 -214 -120 -206 111 0
-456 214 0
-456 120 0
-456 206 0
-456 -111 0
-207 215 0
457 -206 -215 0
-457 206 0
-457 215 0
216 -48 -51 0
-216 48 0
-216 51 0
458 -216 0
-458 216 0
459 -109 -216 121 0
-459 109 0
-459 216 0
-459 -121 0
460 -219 -216 121 109 0
-460 219 0
-460 216 0
-460 -121 0
-460 -109 0
461 -219 -121 -109 -216 0
-461 219 0
-461 121 0
-461 109 0
-461 216 0
462 -110 -216 122 0
-462 110 0
-462 216 0
-462 -122 0
463 -220 -216 122 110 0
-463 220 0
-463 216 0
-463 -122 0
-463 -110 0
464 -220 -122 -110 -216 0
-464 220 0
-464 122 0
-464 110 0
-464 216 0
220 -111 -216 123 0
-220 111 0
-220 216 0
-220 -123 0
217 -216 -218 0
-217 216 0
-217 218 0
465 -217 171 0
-465 217 0
-465 -171 0
466 -121 -109 -216 0
-466 121 0
-466 109 0
-466 216 0
467 -216 121 109 0
-467 216 0
-467 -121 0
-467 -109 0
468 -221 -122 -110 -216 0
-468 221 0
-468 122 0
-468 110 0
-468 216 0
469 -221 -216 122 110 0
-469 221 0
-469 216 0
-469 -122 0
-469 -110 0
223 -109 -216 121 0
-223 109 0
-223 216 0
-223 -121 0
470 -221 -110 -216 122 0
-470 221 0
-470 110 0
-470 216 0
-470 -122 0
471 -223 -122 -216 110 0
-471 223 0
-471 122 0
-471 216 0
-471 -110 0
472 -222 -111 -216 123 0
-472 222 0
-472 111 0
-472 216 0
-472 -123 0
473 -224 -123 -216 111 0
-473 224 0
-473 123 0
-473 216 0
-473 -111 0
-217 225 0
474 -216 -225 0
-474 216 0
-474 225 0
-173 174 0
-29 173 171 0
30 84 0
-30 -84 0
228 -112 0
-228 112 0
-113 -228 0
-112 -31 -227 0
-112 31 0
-113 -31 -227 0
-113 31 0
-114 -31 -227 0
-114 31 0
231 -30 0
-231 30 0
475 -231 0
-475 231 0
227 -231 0
-227 231 0
232 -27 -37 0
-232 27 0
-232 37 0
476 -232 0
-476 232 0
477 -112 -232 106 0
-477 112 0
-477 232 0
-477 -106 0
478 -235 -232 106 112 0
-478 235 0
-478 232 0
-478 -106 0
-478 -112 0
479 -235 -106 -112 -232 0
-479 235 0
-479 106 0
-479 112 0
-479 232 0
480 -113 -232 107 0
-480 113 0
-480 232 0
-480 -107 0
481 -236 -232 107 113 0
-481 236 0
-481 232 0
-481 -107 0
-481 -113 0
482 -236 -107 -113 -232 0
-482 236 0
-482 107 0
-482 113 0
-482 232 0
236 -114 -232 108 0
-236 114 0
-236 232 0
-236 -108 0
233 -232 -234 0
-233 232 0
-233 234 0
483 -233 227 0
-483 233 0
-483 -227 0
484 -106 -112 -232 0
-484 106 0
-484 112 0
-484 232 0
485 -232 106 112 0
-485 232 0
-485 -106 0
-485 -112 0
486 -237 -107 -113 -232 0
-486 237 0
-486 107 0
-486 113 0
-486 232 0
487 -237 -232 107 113 0
-487 237 0
-487 232 0
-487 -107 0
-487 -113 0
239 -112 -232 106 0
-239 112 0
-239 232 0
-239 -106 0
488 -237 -113 -232 107 0
-488 237 0
-488 113 0
-488 232 0
-488 -107 0
489 -239 -107 -232 113 0
-489 239 0
-489 107 0
-489 232 0
-489 -113 0
490 -238 -114 -232 108 0
-490 238 0
-490 114 0
-490 232 0
-490 -108 0
491 -240 -108 -232 114 0
-491 240 0
-491 108 0
-491 232 0
-491 -114 0
-233 241 0
492 -232 -241 0
-492 232 0
-492 241 0
242 -29 -39 0
-242 29 0
-242 39 0
493 -242 0
-493 242 0
494 -112 -242 109 0
-494 112 0
-494 242 0
-494 -109 0
495 -245 -242 109 112 0
-495 245 0
-495 242 0
-495 -109 0
-495 -112 0
496 -245 -109 -112 -242 0
-496 245 0
-496 109 0
-496 112 0
-496 242 0
497 -113 -242 110 0
-497 113 0
-497 242 0
-497 -110 0
498 -246 -242 110 113 0
-498 246 0
-498 242 0
-498 -110 0
-498 -113 0
499 -246 -110 -113 -242 0
-499 246 0
-499 110 0
-499 113 0
-499 242 0
246 -114 -242 111 0
-246 114 0
-246 242 0
-246 -111 0
243 -242 -244 0
-243 242 0
-243 244 0
500 -243 227 0
-500 243 0
-500 -227 0
501 -109 -112 -242 0
-501 109 0
-501 112 0
-501 242 0
502 -242 109 112 0
-502 242 0
-502 -109 0
-502 -112 0
503 -247 -110 -113 -242 0
-503 247 0
-503 110 0
-503 113 0
-503 242 0
504 -247 -242 110 113 0
-504 247 0
-504 242 0
-504 -110 0
-504 -113 0
249 -112 -242 109 0
-249 112 0
-249 242 0
-249 -109 0
505 -247 -113 -242 110 0
-505 247 0
-505 113 0
-505 242 0
-505 -110 0
506 -249 -110 -242 113 0
-506 249 0
-506 110 0
-506 242 0
-506 -113 0
507 -248 -114 -242 111 0
-507 248 0
-507 114 0
-507 242 0
-507 -111 0
508 -250 -111 -242 114 0
-508 250 0
-508 111 0
-508 242 0
-508 -114 0
-243 251 0
509 -242 -251 0
-509 242 0
-509 251 0
-229 230 0
-31 229 227 0
32 85 0
-32 -85 0
33 86 0
-33 -86 0
254 -115 0
-254 115 0
-116 -254 0
-115 -34 -253 0
-115 34 0
-116 -34 -253 0
-116 34 0
-117 -34 -253 0
-117 34 0
257 -33 0
-257 33 0
510 -257 0
-510 257 0
253 -257 0
-253 257 0
258 -27 -32 0
-258 27 0
-258 32 0
511 -258 0
-511 258 0
512 -115 -258 106 0
-512 115 0
-512 258 0
-512 -106 0
513 -261 -258 106 115 0
-513 261 0
-513 258 0
-513 -106 0
-513 -115 0
514 -261 -106 -115 -258 0
-514 261 0
-514 106 0
-514 115 0
-514 258 0
515 -116 -258 107 0
-515 116 0
-515 258 0
-515 -107 0
516 -262 -258 107 116 0
-516 262 0
-516 258 0
-516 -107 0
-516 -116 0
517 -262 -107 -116 -258 0
-517 262 0
-517 107 0
-517 116 0
-517 258 0
262 -117 -258 108 0
-262 117 0
-262 258 0
-262 -108 0
259 -258 -260 0
-259 258 0
-259 260 0
518 -259 253 0
-518 259 0
-518 -253 0
519 -106 -115 -258 0
-519 106 0
-519 115 0
-519 258 0
520 -258 106 115 0
-520 258 0
-520 -106 0
-520 -115 0
521 -263 -107 -116 -258 0
-521 263 0
-521 107 0
-521 116 0
-521 258 0
522 -263 -258 107 116 0
-522 263 0
-522 258 0
-522 -107 0
-522 -116 0
265 -115 -258 106 0
-265 115 0
-265 258 0
-265 -106 0
523 -263 -116 -258 107 0
-523 263 0
-523 116 0
-523 258 0
-523 -107 0
524 -265 -107 -258 116 0
-524 265 0
-524 107 0
-524 258 0
-524 -116 0
525 -264 -117 -258 108 0
-525 264 0
-525 117 0
-525 258 0
-525 -108 0
526 -266 -108 -258 117 0
-526 266 0
-526 108 0
-526 258 0
-526 -117 0
-259 267 0
527 -258 -267 0
-527 258 0
-527 267 0
268 -29 -52 0
-268 29 0
-268 52 0
528 -268 0
-528 268 0
529 -115 -268 109 0
-529 115 0
-529 268 0
-529 -109 0
530 -271 -268 109 115 0
-530 271 0
-530 268 0
-530 -109 0
-530 -115 0
531 -271 -109 -115 -268 0
-531 271 0
-531 109 0
-531 115 0
-531 268 0
532 -116 -268 110 0
-532 116 0
-532 268 0
-532 -110 0
533 -272 -268 110 116 0
-533 272 0
-533 268 0
-533 -110 0
-533 -116 0
534 -272 -110 -116 -268 0
-534 272 0
-534 110 0
-534 116 0
-534 268 0
272 -117 -268 111 0
-272 117 0
-272 268 0
-272 -111 0
269 -268 -270 0
-269 268 0
-269 270 0
535 -269 253 0
-535 269 0
-535 -253 0
536 -109 -115 -268 0
-536 109 0
-536 115 0
-536 268 0
537 -268 109 115 0
-537 268 0
-537 -109 0
-537 -115 0
538 -273 -110 -116 -268 0
-538 273 0
-538 110 0
-538 116 0
-538 268 0
539 -273 -268 110 116 0
-539 273 0
-539 268 0
-539 -110 0
-539 -116 0
275 -115 -268 109 0
-275 115 0
-275 268 0
-275 -109 0
540 -273 -116 -268 110 0
-540 273 0
-540 116 0
-540 268 0
-540 -110 0
541 -275 -110 -268 116 0
-541 275 0
-541 110 0
-541 268 0
-541 -116 0
542 -274 -117 -268 111 0
-542 274 0
-542 117 0
-542 268 0
-542 -111 0
543 -276 -111 -268 117 0
-543 276 0
-543 111 0
-543 268 0
-543 -117 0
-269 277 0
544 -268 -277 0
-544 268 0
-544 277 0
-255 256 0
-34 255 253 0
35 87 0
-35 -87 0
36 88 0
-36 -88 0
37 89 0
-37 -89 0
38 90 0
-38 -90 0
39 91 0
-39 -91 0
40 92 0
-40 -92 0
41 93 0
-41 -93 0
42 94 0
-42 -94 0
43 95 0
-43 -95 0
280 -118 0
-280 118 0
-119 -280 0
-118 -44 -279 0
-118 44 0
-119 -44 -279 0
-119 44 0
-120 -44 -279 0
-120 44 0
283 -43 0
-283 43 0
545 -283 0
-545 283 0
279 -283 0
-279 283 0
284 -29 -42 0
-284 29 0
-284 42 0
546 -284 0
-546 284 0
547 -118 -284 109 0
-547 118 0
-547 284 0
-547 -109 0
548 -287 -284 109 118 0
-548 287 0
-548 284 0
-548 -109 0
-548 -118 0
549 -287 -109 -118 -284 0
-549 287 0
-549 109 0
-549 118 0
-549 284 0
550 -119 -284 110 0
-550 119 0
-550 284 0
-550 -110 0
551 -288 -284 110 119 0
-551 288 0
-551 284 0
-551 -110 0
-551 -119 0
552 -288 -110 -119 -284 0
-552 288 0
-552 110 0
-552 119 0
-552 284 0
288 -120 -284 111 0
-288 120 0
-288 284 0
-288 -111 0
285 -284 -286 0
-285 284 0
-285 286 0
281 -285 279 0
-281 285 0
-281 -279 0
553 -109 -118 -284 0
-553 109 0
-553 118 0
-553 284 0
554 -284 109 118 0
-554 284 0
-554 -109 0
-554 -118 0
555 -289 -110 -119 -284 0
-555 289 0
-555 110 0
-555 119 0
-555 284 0
556 -289 -284 110 119 0
-556 289 0
-556 284 0
-556 -110 0
-556 -119 0
291 -118 -284 109 0
-291 118 0
-291 284 0
-291 -109 0
557 -289 -119 -284 110 0
-557 289 0
-557 119 0
-557 284 0
-557 -110 0
558 -291 -110 -284 119 0
-558 291 0
-558 110 0
-558 284 0
-558 -119 0
559 -290 -120 -284 111 0
-559 290 0
-559 120 0
-559 284 0
-559 -111 0
560 -292 -111 -284 120 0
-560 292 0
-560 111 0
-560 284 0
-560 -120 0
-285 293 0
282 -284 -293 0
-282 284 0
-282 293 0
-281 282 0
-44 281 279 0
45 96 0
-45 -96 0
46 97 0
-46 -97 0
47 98 0
-47 -98 0
296 -121 0
-296 121 0
-122 -296 0
-121 -48 -295 0
-121 48 0
-122 -48 -295 0
-122 48 0
-123 -48 -295 0
-123 48 0
299 -47 0
-299 47 0
561 -299 0
-561 299 0
295 -299 0
-295 299 0
300 -29 -46 0
-300 29 0
-300 46 0
562 -300 0
-562 300 0
563 -121 -300 109 0
-563 121 0
-563 300 0
-563 -109 0
564 -303 -300 109 121 0
-564 303 0
-564 300 0
-564 -109 0
-564 -121 0
565 -303 -109 -121 -300 0
-565 303 0
-565 109 0
-565 121 0
-565 300 0
566 -122 -300 110 0
-566 122 0
-566 300 0
-566 -110 0
567 -304 -300 110 122 0
-567 304 0
-567 300 0
-567 -110 0
-567 -122 0
568 -304 -110 -122 -300 0
-568 304 0
-568 110 0
-568 122 0
-568 300 0
304 -123 -300 111 0
-304 123 0
-304 300 0
-304 -111 0
301 -300 -302 0
-301 300 0
-301 302 0
569 -301 295 0
-569 301 0
-569 -295 0
570 -109 -121 -300 0
-570 109 0
-570 121 0
-570 300 0
571 -300 109 121 0
-571 300 0
-571 -109 0
-571 -121 0
572 -305 -110 -122 -300 0
-572 305 0
-572 110 0
-572 122 0
-572 300 0
573 -305 -300 110 122 0
-573 305 0
-573 300 0
-573 -110 0
-573 -122 0
307 -121 -300 109 0
-307 121 0
-307 300 0
-307 -109 0
574 -305 -122 -300 110 0
-574 305 0
-574 122 0
-574 300 0
-574 -110 0
575 -307 -110 -300 122 0
-575 307 0
-575 110 0
-575 300 0
-575 -122 0
576 -306 -123 -300 111 0
-576 306 0
-576 123 0
-576 300 0
-576 -111 0
577 -308 -111 -300 123 0
-577 308 0
-577 111 0
-577 300 0
-577 -123 0
-301 309 0
578 -300 -309 0
-578 300 0
-578 309 0
310 -27 -50 0
-310 27 0
-310 50 0
579 -310 0
-579 310 0
580 -121 -310 106 0
-580 121 0
-580 310 0
-580 -106 0
581 -313 -310 106 121 0
-581 313 0
-581 310 0
-581 -106 0
-581 -121 0
582 -313 -106 -121 -310 0
-582 313 0
-582 106 0
-582 121 0
-582 310 0
583 -122 -310 107 0
-583 122 0
-583 310 0
-583 -107 0
584 -314 -310 107 122 0
-584 314 0
-584 310 0
-584 -107 0
-584 -122 0
585 -314 -107 -122 -310 0
-585 314 0
-585 107 0
-585 122 0
-585 310 0
314 -123 -310 108 0
-314 123 0
-314 310 0
-314 -108 0
311 -310 -312 0
-311 310 0
-311 312 0
586 -311 295 0
-586 311 0
-586 -295 0
587 -106 -121 -310 0
-587 106 0
-587 121 0
-587 310 0
588 -310 106 121 0
-588 310 0
-588 -106 0
-588 -121 0
589 -315 -107 -122 -310 0
-589 315 0
-589 107 0
-589 122 0
-589 310 0
590 -315 -310 107 122 0
-590 315 0
-590 310 0
-590 -107 0
-590 -122 0
317 -121 -310 106 0
-317 121 0
-317 310 0
-317 -106 0
591 -315 -122 -310 107 0
-591 315 0
-591 122 0
-591 310 0
-591 -107 0
592 -317 -107 -310 122 0
-592 317 0
-592 107 0
-592 310 0
-592 -122 0
593 -316 -123 -310 108 0
-593 316 0
-593 123 0
-593 310 0
-593 -108 0
594 -318 -108 -310 123 0
-594 318 0
-594 108 0
-594 310 0
-594 -123 0
-311 319 0
595 -310 -319 0
-595 310 0
-595 319 0
-297 298 0
-48 297 295 0
49 99 0
-49 -99 0
50 100 0
-50 -100 0
51 101 0
-51 -101 0
52 102 0
-52 -102 0
53 103 0
-53 -103 0
54 104 0
-54 -104 0
55 -54 0
-55 54 0
56 105 0
-56 -105 0
57 -56 0
-57 56 0
58 0
59 0
60 0
61 0
62 0
63 0
64 0
65 0
66 0
67 0
68 0
69 0
70 0
71 0
72 0
73 0
74 0
75 0
76 0
77 0
78 0
79 0
80 0
81 0
82 26 0
-82 -26 0
83 28 0
-83 -28 0
84 30 0
-84 -30 0
85 32 0
-85 -32 0
86 33 0
-86 -33 0
87 35 0
-87 -35 0
88 36 0
-88 -36 0
89 37 0
-89 -37 0
90 38 0
-90 -38 0
91 39 0
-91 -39 0
92 40 0
-92 -40 0
93 41 0
-93 -41 0
94 42 0
-94 -42 0
95 43 0
-95 -43 0
96 45 0
-96 -45 0
97 46 0
-97 -46 0
98 47 0
-98 -47 0
99 49 0
-99 -49 0
100 50 0
-100 -50 0
101 51 0
-101 -51 0
102 52 0
-102 -52 0
103 53 0
-103 -53 0
104 54 0
-104 -54 0
105 56 0
-105 -56 0
-1 0
-1 0
-2 0
-3 0
-4 0
-5 0
-6 0
-7 0
-8 0
-9 0
-10 0
-11 0
-12 0
-13 0
-14 0
-15 0
-16 0
-17 0
-18 0
-19 0
-20 0
-21 0
-22 0
-23 0
-24 0
-25 0
-27 320 321 338 355 372 0
27 -320 0
27 -321 0
27 -338 0
27 -355 0
27 -372 0
-29 389 390 407 424 441 458 0
29 -389 0
29 -390 0
29 -407 0
29 -424 0
29 -441 0
29 -458 0
-31 475 476 493 0
31 -475 0
31 -476 0
31 -493 0
-34 510 511 528 0
34 -510 0
34 -511 0
34 -528 0
-44 545 546 0
44 -545 0
44 -546 0
-48 561 562 579 0
48 -561 0
48 -562 0
48 -579 0
-124 0
-127 328 345 362 379 0
127 -328 0
127 -345 0
127 -362 0
127 -379 0
-128 337 354 371 388 0
128 -337 0
128 -354 0
128 -371 0
128 -388 0
-132 322 323 324 0
132 -322 0
132 -323 0
132 -324 0
-133 325 326 327 0
133 -325 0
133 -326 0
133 -327 0
-135 329 330 0
135 -329 0
135 -330 0
-136 331 332 0
136 -331 0
136 -332 0
-138 333 334 0
138 -333 0
138 -334 0
-139 335 336 0
139 -335 0
139 -336 0
-142 339 340 341 0
142 -339 0
142 -340 0
142 -341 0
-143 342 343 344 0
143 -342 0
143 -343 0
143 -344 0
-145 346 347 0
145 -346 0
145 -347 0
-146 348 349 0
146 -348 0
146 -349 0
-148 350 351 0
148 -350 0
148 -351 0
-149 352 353 0
149 -352 0
149 -353 0
-152 356 357 358 0
152 -356 0
152 -357 0
152 -358 0
-153 359 360 361 0
153 -359 0
153 -360 0
153 -361 0
-155 363 364 0
155 -363 0
155 -364 0
-156 365 366 0
156 -365 0
156 -366 0
-158 367 368 0
158 -367 0
158 -368 0
-159 369 370 0
159 -369 0
159 -370 0
-162 373 374 375 0
162 -373 0
162 -374 0
162 -375 0
-163 376 377 378 0
163 -376 0
163 -377 0
163 -378 0
-165 380 381 0
165 -380 0
165 -381 0
-166 382 383 0
166 -382 0
166 -383 0
-168 384 385 0
168 -384 0
168 -385 0
-169 386 387 0
169 -386 0
169 -387 0
-170 0
-173 397 414 431 448 465 0
173 -397 0
173 -414 0
173 -431 0
173 -448 0
173 -465 0
-174 406 423 440 457 474 0
174 -406 0
174 -423 0
174 -440 0
174 -457 0
174 -474 0
-178 391 392 393 0
178 -391 0
178 -392 0
178 -393 0
-179 394 395 396 0
179 -394 0
179 -395 0
179 -396 0
-181 398 399 0
181 -398 0
181 -399 0
-182 400 401 0
182 -400 0
182 -401 0
-184 402 403 0
184 -402 0
184 -403 0
-185 404 405 0
185 -404 0
185 -405 0
-188 408 409 410 0
188 -408 0
188 -409 0
188 -410 0
-189 411 412 413 0
189 -411 0
189 -412 0
189 -413 0
-191 415 416 0
191 -415 0
191 -416 0
-192 417 418 0
192 -417 0
192 -418 0
-194 419 420 0
194 -419 0
194 -420 0
-195 421 422 0
195 -421 0
195 -422 0
-198 425 426 427 0
198 -425 0
198 -426 0
198 -427 0
-199 428 429 430 0
199 -428 0
199 -429 0
199 -430 0
-201 432 433 0
201 -432 0
201 -433 0
-202 434 435 0
202 -434 0
202 -435 0
-204 436 437 0
204 -436 0
204 -437 0
-205 438 439 0
205 -438 0
205 -439 0
-208 442 443 444 0
208 -442 0
208 -443 0
208 -444 0
-209 445 446 447 0
209 -445 0
209 -446 0
209 -447 0
-211 449 450 0
211 -449 0
211 -450 0
-212 451 452 0
212 -451 0
212 -452 0
-214 453 454 0
214 -453 0
214 -454 0
-215 455 456 0
215 -455 0
215 -456 0
-218 459 460 461 0
218 -459 0
218 -460 0
218 -461 0
-219 462 463 464 0
219 -462 0
219 -463 0
219 -464 0
-221 466 467 0
221 -466 0
221 -467 0
-222 468 469 0
222 -468 0
222 -469 0
-224 470 471 0
224 -470 0
224 -471 0
-225 472 473 0
225 -472 0
225 -473 0
-226 0
-229 483 500 0
229 -483 0
229 -500 0
-230 492 509 0
230 -492 0
230 -509 0
-234 477 478 479 0
234 -477 0
234 -478 0
234 -479 0
-235 480 481 482 0
235 -480 0
235 -481 0
235 -482 0
-237 484 485 0
237 -484 0
237 -485 0
-238 486 487 0
238 -486 0
238 -487 0
-240 488 489 0
240 -488 0
240 -489 0
-241 490 491 0
241 -490 0
241 -491 0
-244 494 495 496 0
244 -494 0
244 -495 0
244 -496 0
-245 497 498 499 0
245 -497 0
245 -498 0
245 -499 0
-247 501 502 0
247 -501 0
247 -502 0
-248 503 504 0
248 -503 0
248 -504 0
-250 505 506 0
250 -505 0
250 -506 0
-251 507 508 0
251 -507 0
251 -508 0
-252 0
-255 518 535 0
255 -518 0
255 -535 0
-256 527 544 0
256 -527 0
256 -544 0
-260 512 513 514 0
260 -512 0
260 -513 0
260 -514 0
-261 515 516 517 0
261 -515 0
261 -516 0
261 -517 0
-263 519 520 0
263 -519 0
263 -520 0
-264 521 522 0
264 -521 0
264 -522 0
-266 523 524 0
266 -523 0
266 -524 0
-267 525 526 0
267 -525 0
267 -526 0
-270 529 530 531 0
270 -529 0
270 -530 0
270 -531 0
-271 532 533 534 0
271 -532 0
271 -533 0
271 -534 0
-273 536 537 0
273 -536 0
273 -537 0
-274 538 539 0
274 -538 0
274 -539 0
-276 540 541 0
276 -540 0
276 -541 0
-277 542 543 0
277 -542 0
277 -543 0
-278 0
-286 547 548 549 0
286 -547 0
286 -548 0
286 -549 0
-287 550 551 552 0
287 -550 0
287 -551 0
287 -552 0
-289 553 554 0
289 -553 0
289 -554 0
-290 555 556 0
290 -555 0
290 -556 0
-292 557 558 0
292 -557 0
292 -558 0
-293 559 560 0
293 -559 0
293 -560 0
-294 0
-297 569 586 0
297 -569 0
297 -586 0
-298 578 595 0
298 -578 0
298 -595 0
-302 563 564 565 0
302 -563 0
302 -564 0
302 -565 0
-303 566 567 568 0
303 -566 0
303 -567 0
303 -568 0
-305 570 571 0
305 -570 0
305 -571 0
-306 572 573 0
306 -572 0
306 -573 0
-308 574 575 0
308 -574 0
308 -575 0
-309 576 577 0
309 -576 0
309 -577 0
-312 580 581 582 0
312 -580 0
312 -581 0
312 -582 0
-313 583 584 585 0
313 -583 0
313 -584 0
313 -585 0
-315 587 588 0
315 -587 0
315 -588 0
-316 589 590 0
316 -589 0
316 -590 0
-318 591 592 0
318 -591 0
318 -592 0
-319 593 594 0
319 -593 0
319 -594 0
c p auxilliary 1 2 3 4 5 6 7 8 9 10 11 12 13 14 15 16 17 18 19 20 21 22 23 24 25 82 83 84 85 86 87 88 89 90 91 92 93 94 95 96 97 98 99 100 101 102 103 104 105 106 107 108 109 110 111 112 113 114 115 116 117 118 119 120 121 122 123 124 125 126 127 128 129 130 131 132 133 134 135 136 137 138 139 140 141 142 143 144 145 146 147 148 149 150 151 152 153 154 155 156 157 158 159 160 161 162 163 164 165 166 167 168 169 170 171 172 173 174 175 176 177 178 179 180 181 182 183 184 185 186 187 188 189 190 191 192 193 194 195 196 197 198 199 200 201 202 203 204 205 206 207 208 209 210 211 212 213 214 215 216 217 218 219 220 221 222 223 224 225 226 227 228 229 230 231 232 233 234 235 236 237 238 239 240 241 242 243 244 245 246 247 248 249 250 251 252 253 254 255 256 257 258 259 260 261 262 263 264 265 266 267 268 269 270 271 272 273 274 275 276 277 278 279 280 281 282 283 284 285 286 287 288 289 290 291 292 293 294 295 296 297 298 299 300 301 302 303 304 305 306 307 308 309 310 311 312 313 314 315 316 317 318 319 320 321 322 323 324 325 326 327 328 329 330 331 332 333 334 335 336 337 338 339 340 341 342 343 344 345 346 347 348 349 350 351 352 353 354 355 356 357 358 359 360 361 362 363 364 365 366 367 368 369 370 371 372 373 374 375 376 377 378 379 380 381 382 383 384 385 386 387 388 389 390 391 392 393 394 395 396 397 398 399 400 401 402 403 404 405 406 407 408 409 410 411 412 413 414 415 416 417 418 419 420 421 422 423 424 425 426 427 428 429 430 431 432 433 434 435 436 437 438 439 440 441 442 443 444 445 446 447 448 449 450 451 452 453 454 455 456 457 458 459 460 461 462 463 464 465 466 467 468 469 470 471 472 473 474 475 476 477 478 479 480 481 482 483 484 485 486 487 488 489 490 491 492 493 494 495 496 497 498 499 500 501 502 503 504 505 506 507 508 509 510 511 512 513 514 515 516 517 518 519 520 521 522 523 524 525 526 527 528 529 530 531 532 533 534 535 536 537 538 539 540 541 542 543 544 545 546 547 548 549 550 551 552 553 554 555 556 557 558 559 560 561 562 563 564 565 566 567 568 569 570 571 572 573 574 575 576 577 578 579 580 581 582 583 584 585 586 587 588 589 590 591 592 593 594 595 0
